Mn O Sr
   1.0
     3.8133041973953783    0.0000000000000000    0.0000000000000000
     0.0000000000000000    3.8133041973953783    0.0000000000000000
     0.0000000000000000    0.0000000000000000    3.8133041973953783
   1    3    1
Direct
  0.5000000000000000  0.5000000000000000  0.5000000000000000
  0.5000000000000000  0.5000000000000000  0.0000000000000000
  0.0000000000000000  0.5000000000000000  0.5000000000000000
  0.5000000000000000  0.0000000000000000  0.5000000000000000
  0.0000000000000000  0.0000000000000000  0.0000000000000000
