dis_win_min = -3.3963
dis_win_max = 13.6037
dis_froz_min = -1.3963
dis_froz_max = 6.6037
kmesh_tol = 1e-09
bands_plot_format = gnuplot
num_bands = 120
num_wann = 56
bands_num_points = 410
num_iter = 300
search_shells = 24
guiding_centres = true
write_xyz = true
bands_plot = true
write_hr = true

begin projections
c=1.95,-1.95,0.0: l=1, mr=1 		# O1|pz|None|None
c=1.95,-1.95,0.0: l=1, mr=2 		# O1|px|None|None
c=1.95,-1.95,0.0: l=1, mr=3 		# O1|py|None|None
c=1.95,-1.95,3.9: l=1, mr=1 		# O2|pz|None|None
c=1.95,-1.95,3.9: l=1, mr=2 		# O2|px|None|None
c=1.95,-1.95,3.9: l=1, mr=3 		# O2|py|None|None
c=1.95,1.9499999999999997,0.0: l=1, mr=1 		# O3|pz|None|None
c=1.95,1.9499999999999997,0.0: l=1, mr=2 		# O3|px|None|None
c=1.95,1.9499999999999997,0.0: l=1, mr=3 		# O3|py|None|None
c=1.95,0.0,1.95: l=1, mr=1 		# O4|pz|None|None
c=1.95,0.0,1.95: l=1, mr=2 		# O4|px|None|None
c=1.95,0.0,1.95: l=1, mr=3 		# O4|py|None|None
c=1.95,1.9499999999999997,3.9: l=1, mr=1 		# O5|pz|None|None
c=1.95,1.9499999999999997,3.9: l=1, mr=2 		# O5|px|None|None
c=1.95,1.9499999999999997,3.9: l=1, mr=3 		# O5|py|None|None
c=1.95,0.0,5.85: l=1, mr=1 		# O6|pz|None|None
c=1.95,0.0,5.85: l=1, mr=2 		# O6|px|None|None
c=1.95,0.0,5.85: l=1, mr=3 		# O6|py|None|None
c=3.9,-1.95,1.95: l=1, mr=1 		# O7|pz|None|None
c=3.9,-1.95,1.95: l=1, mr=2 		# O7|px|None|None
c=3.9,-1.95,1.95: l=1, mr=3 		# O7|py|None|None
c=3.9,-1.95,5.85: l=1, mr=1 		# O8|pz|None|None
c=3.9,-1.95,5.85: l=1, mr=2 		# O8|px|None|None
c=3.9,-1.95,5.85: l=1, mr=3 		# O8|py|None|None
c=3.9,1.9499999999999997,1.95: l=1, mr=1 		# O9|pz|None|None
c=3.9,1.9499999999999997,1.95: l=1, mr=2 		# O9|px|None|None
c=3.9,1.9499999999999997,1.95: l=1, mr=3 		# O9|py|None|None
c=5.85,0.0,1.95: l=1, mr=1 		# O10|pz|None|None
c=5.85,0.0,1.95: l=1, mr=2 		# O10|px|None|None
c=5.85,0.0,1.95: l=1, mr=3 		# O10|py|None|None
c=3.9,1.9499999999999997,5.85: l=1, mr=1 		# O11|pz|None|None
c=3.9,1.9499999999999997,5.85: l=1, mr=2 		# O11|px|None|None
c=3.9,1.9499999999999997,5.85: l=1, mr=3 		# O11|py|None|None
c=5.85,0.0,5.85: l=1, mr=1 		# O12|pz|None|None
c=5.85,0.0,5.85: l=1, mr=2 		# O12|px|None|None
c=5.85,0.0,5.85: l=1, mr=3 		# O12|py|None|None
c=1.95,-1.95,1.95: l=2, mr=1 		# Ti1|dz2|None|None
c=1.95,-1.95,1.95: l=2, mr=2 		# Ti1|dxz|None|None
c=1.95,-1.95,1.95: l=2, mr=3 		# Ti1|dyz|None|None
c=1.95,-1.95,1.95: l=2, mr=4 		# Ti1|dx2-y2|None|None
c=1.95,-1.95,1.95: l=2, mr=5 		# Ti1|dxy|None|None
c=1.95,-1.95,5.85: l=2, mr=1 		# Ti2|dz2|None|None
c=1.95,-1.95,5.85: l=2, mr=2 		# Ti2|dxz|None|None
c=1.95,-1.95,5.85: l=2, mr=3 		# Ti2|dyz|None|None
c=1.95,-1.95,5.85: l=2, mr=4 		# Ti2|dx2-y2|None|None
c=1.95,-1.95,5.85: l=2, mr=5 		# Ti2|dxy|None|None
c=1.95,1.9499999999999997,1.95: l=2, mr=1 		# Ti3|dz2|None|None
c=1.95,1.9499999999999997,1.95: l=2, mr=2 		# Ti3|dxz|None|None
c=1.95,1.9499999999999997,1.95: l=2, mr=3 		# Ti3|dyz|None|None
c=1.95,1.9499999999999997,1.95: l=2, mr=4 		# Ti3|dx2-y2|None|None
c=1.95,1.9499999999999997,1.95: l=2, mr=5 		# Ti3|dxy|None|None
c=1.95,1.9499999999999997,5.85: l=2, mr=1 		# Ti4|dz2|None|None
c=1.95,1.9499999999999997,5.85: l=2, mr=2 		# Ti4|dxz|None|None
c=1.95,1.9499999999999997,5.85: l=2, mr=3 		# Ti4|dyz|None|None
c=1.95,1.9499999999999997,5.85: l=2, mr=4 		# Ti4|dx2-y2|None|None
c=1.95,1.9499999999999997,5.85: l=2, mr=5 		# Ti4|dxy|None|None
end projections

begin unit_cell_cart
	3.9	-3.9	0.0
	3.9	3.9	0.0
	0.0	0.0	7.8
end unit_cell_cart


begin atoms_cart
Ti	1.95	-1.95	1.95
O	1.95	-1.95	0.0
Ti	1.95	-1.95	5.85
O	1.95	-1.95	3.9
Sr	0.0	0.0	0.0
Ti	1.95	1.9499999999999997	1.95
O	1.95	1.9499999999999997	0.0
O	1.95	0.0	1.95
Sr	0.0	0.0	3.9
Ti	1.95	1.9499999999999997	5.85
O	1.95	1.9499999999999997	3.9
O	1.95	0.0	5.85
O	3.9	-1.95	1.95
O	3.9	-1.95	5.85
Sr	3.9	0.0	0.0
O	3.9	1.9499999999999997	1.95
O	5.85	0.0	1.95
Sr	3.9	0.0	3.9
O	3.9	1.9499999999999997	5.85
O	5.85	0.0	5.85
end atoms_cart

mp_grid = 	6	6	4
begin kpoint_path
X 0.5 0.0 0.0	GM 0.0 0.0 0.5
GM 0.0 0.0 0.5	Y 0.0 0.5 0.0
Y 0.0 0.5 0.0	S 0.5 0.5 0.0
S 0.5 0.5 0.0	X 0.5 0.0 0.0
X 0.5 0.0 0.0	R 0.5 0.5 0.5
R 0.5 0.5 0.5	GM 0.0 0.0 0.0
end kpoint_path


begin kpoints
      0.000000000000      0.000000000000      0.000000000000
      0.166666666667      0.000000000000      0.000000000000
      0.333333333333      0.000000000000      0.000000000000
      0.500000000000      0.000000000000      0.000000000000
      0.166666666667      0.166666666667      0.000000000000
      0.333333333333      0.166666666667      0.000000000000
      0.500000000000      0.166666666667      0.000000000000
      0.333333333333      0.333333333333      0.000000000000
      0.500000000000      0.333333333333      0.000000000000
      0.500000000000      0.500000000000      0.000000000000
      0.000000000000      0.000000000000      0.250000000000
      0.166666666667      0.000000000000      0.250000000000
      0.333333333333      0.000000000000      0.250000000000
      0.500000000000      0.000000000000      0.250000000000
      0.166666666667      0.166666666667      0.250000000000
      0.333333333333      0.166666666667      0.250000000000
      0.500000000000      0.166666666667      0.250000000000
      0.333333333333      0.333333333333      0.250000000000
      0.500000000000      0.333333333333      0.250000000000
      0.500000000000      0.500000000000      0.250000000000
      0.000000000000      0.000000000000      0.500000000000
      0.166666666667      0.000000000000      0.500000000000
      0.333333333333      0.000000000000      0.500000000000
      0.500000000000      0.000000000000      0.500000000000
      0.166666666667      0.166666666667      0.500000000000
      0.333333333333      0.166666666667      0.500000000000
      0.500000000000      0.166666666667      0.500000000000
      0.333333333333      0.333333333333      0.500000000000
      0.500000000000      0.333333333333      0.500000000000
      0.500000000000      0.500000000000      0.500000000000
     -0.166666666667     -0.000000000000     -0.000000000000
     -0.000000000000      0.166666666667      0.000000000000
      0.000000000000     -0.166666666667     -0.000000000000
     -0.333333333333     -0.000000000000     -0.000000000000
     -0.000000000000      0.333333333333      0.000000000000
      0.000000000000     -0.333333333333     -0.000000000000
     -0.000000000000      0.500000000000      0.000000000000
     -0.166666666667     -0.166666666667     -0.000000000000
     -0.166666666667      0.166666666667      0.000000000000
      0.166666666667     -0.166666666667     -0.000000000000
     -0.333333333333     -0.166666666667     -0.000000000000
     -0.166666666667      0.333333333333      0.000000000000
      0.166666666667     -0.333333333333     -0.000000000000
     -0.333333333333      0.166666666667     -0.000000000000
      0.333333333333     -0.166666666667      0.000000000000
      0.166666666667      0.333333333333     -0.000000000000
     -0.166666666667     -0.333333333333      0.000000000000
     -0.500000000000     -0.166666666667     -0.000000000000
     -0.166666666667      0.500000000000      0.000000000000
      0.166666666667     -0.500000000000     -0.000000000000
     -0.333333333333     -0.333333333333     -0.000000000000
     -0.333333333333      0.333333333333      0.000000000000
      0.333333333333     -0.333333333333     -0.000000000000
     -0.500000000000     -0.333333333333     -0.000000000000
     -0.333333333333      0.500000000000      0.000000000000
      0.333333333333     -0.500000000000     -0.000000000000
     -0.000000000000     -0.000000000000     -0.250000000000
     -0.166666666667     -0.000000000000     -0.250000000000
     -0.000000000000      0.166666666667      0.250000000000
      0.000000000000     -0.166666666667     -0.250000000000
     -0.166666666667     -0.000000000000      0.250000000000
      0.166666666667      0.000000000000     -0.250000000000
      0.000000000000     -0.166666666667      0.250000000000
     -0.000000000000      0.166666666667     -0.250000000000
     -0.333333333333     -0.000000000000     -0.250000000000
     -0.000000000000      0.333333333333      0.250000000000
      0.000000000000     -0.333333333333     -0.250000000000
     -0.333333333333     -0.000000000000      0.250000000000
      0.333333333333      0.000000000000     -0.250000000000
      0.000000000000     -0.333333333333      0.250000000000
     -0.000000000000      0.333333333333     -0.250000000000
     -0.500000000000     -0.000000000000     -0.250000000000
     -0.000000000000      0.500000000000      0.250000000000
      0.000000000000     -0.500000000000     -0.250000000000
     -0.166666666667     -0.166666666667     -0.250000000000
     -0.166666666667      0.166666666667      0.250000000000
      0.166666666667     -0.166666666667     -0.250000000000
     -0.166666666667     -0.166666666667      0.250000000000
      0.166666666667      0.166666666667     -0.250000000000
      0.166666666667     -0.166666666667      0.250000000000
     -0.166666666667      0.166666666667     -0.250000000000
     -0.333333333333     -0.166666666667     -0.250000000000
     -0.166666666667      0.333333333333      0.250000000000
      0.166666666667     -0.333333333333     -0.250000000000
     -0.333333333333     -0.166666666667      0.250000000000
      0.333333333333      0.166666666667     -0.250000000000
      0.166666666667     -0.333333333333      0.250000000000
     -0.166666666667      0.333333333333     -0.250000000000
     -0.333333333333      0.166666666667     -0.250000000000
      0.333333333333     -0.166666666667      0.250000000000
      0.166666666667      0.333333333333     -0.250000000000
     -0.166666666667     -0.333333333333      0.250000000000
      0.333333333333     -0.166666666667     -0.250000000000
     -0.333333333333      0.166666666667      0.250000000000
     -0.166666666667     -0.333333333333     -0.250000000000
      0.166666666667      0.333333333333      0.250000000000
     -0.500000000000     -0.166666666667     -0.250000000000
     -0.166666666667      0.500000000000      0.250000000000
      0.166666666667     -0.500000000000     -0.250000000000
     -0.500000000000     -0.166666666667      0.250000000000
      0.500000000000      0.166666666667     -0.250000000000
      0.166666666667     -0.500000000000      0.250000000000
     -0.166666666667      0.500000000000     -0.250000000000
     -0.333333333333     -0.333333333333     -0.250000000000
     -0.333333333333      0.333333333333      0.250000000000
      0.333333333333     -0.333333333333     -0.250000000000
     -0.333333333333     -0.333333333333      0.250000000000
      0.333333333333      0.333333333333     -0.250000000000
      0.333333333333     -0.333333333333      0.250000000000
     -0.333333333333      0.333333333333     -0.250000000000
     -0.500000000000     -0.333333333333     -0.250000000000
     -0.333333333333      0.500000000000      0.250000000000
      0.333333333333     -0.500000000000     -0.250000000000
     -0.500000000000     -0.333333333333      0.250000000000
      0.500000000000      0.333333333333     -0.250000000000
      0.333333333333     -0.500000000000      0.250000000000
     -0.333333333333      0.500000000000     -0.250000000000
     -0.500000000000     -0.500000000000     -0.250000000000
     -0.166666666667     -0.000000000000     -0.500000000000
     -0.000000000000      0.166666666667      0.500000000000
      0.000000000000     -0.166666666667     -0.500000000000
     -0.333333333333     -0.000000000000     -0.500000000000
     -0.000000000000      0.333333333333      0.500000000000
      0.000000000000     -0.333333333333     -0.500000000000
     -0.000000000000      0.500000000000      0.500000000000
     -0.166666666667     -0.166666666667     -0.500000000000
     -0.166666666667      0.166666666667      0.500000000000
      0.166666666667     -0.166666666667     -0.500000000000
     -0.333333333333     -0.166666666667     -0.500000000000
     -0.166666666667      0.333333333333      0.500000000000
      0.166666666667     -0.333333333333     -0.500000000000
     -0.333333333333      0.166666666667     -0.500000000000
      0.333333333333     -0.166666666667      0.500000000000
      0.166666666667      0.333333333333     -0.500000000000
     -0.166666666667     -0.333333333333      0.500000000000
     -0.500000000000     -0.166666666667     -0.500000000000
     -0.166666666667      0.500000000000      0.500000000000
      0.166666666667     -0.500000000000     -0.500000000000
     -0.333333333333     -0.333333333333     -0.500000000000
     -0.333333333333      0.333333333333      0.500000000000
      0.333333333333     -0.333333333333     -0.500000000000
     -0.500000000000     -0.333333333333     -0.500000000000
     -0.333333333333      0.500000000000      0.500000000000
      0.333333333333     -0.500000000000     -0.500000000000
end kpoints
